 Run started: Tue, 13 Jun 2023 07:53:19 +0100

 Atomic calculation performed for O: 1s2 2s2 2p4

 Converged in 57 iterations to an ae energy of -2034.019 eV

   | Pseudopotential Report - Date of generation 13-06-2023   |
   | Element: O Ionic charge:  6.00 Level of theory: PBESOL   |
   | Atomic Solver: Koelling-Harmon                           |
   |               Reference Electronic Structure             |
   |         Orbital         Occupation         Energy        |
   |            2s              2.000           -0.875        |
   |            2p              4.000           -0.330        |
   |                 Pseudopotential Definition               |
   |        Beta     l      e      Rc     scheme   norm       |
   |          1      0   -0.875   1.100     qc      0         |
   |          2      0    0.250   1.100     qc      0         |
   |          3      1   -0.330   1.100     qc      0         |
   |          4      1    0.250   1.100     qc      0         |
   |         loc     2    0.000   1.100     pn      0         |
   | Augmentation charge Rinner = 0.769                       |
   | Partial core correction Rc = 0.769                       |
   | "2|1.1|17|20|23|20:21(qc=8)"                             |
   |      Author: Chris J. Pickard, Cambridge University      |

 Atomic calculation performed for Al: 1s2 2s2 2p6 3s2 3p1

 Converged in 55 iterations to an ae energy of -6590.489 eV

   | Pseudopotential Report - Date of generation 13-06-2023   |
   | Element: Al Ionic charge:  3.00 Level of theory: PBESOL  |
   | Atomic Solver: Koelling-Harmon                           |
   |               Reference Electronic Structure             |
   |         Orbital         Occupation         Energy        |
   |            3s              2.000           -0.284        |
   |            3p              1.000           -0.099        |
   |                 Pseudopotential Definition               |
   |        Beta     l      e      Rc     scheme   norm       |
   |          1      0   -0.284   2.192     qc      0         |
   |          2      0    0.250   2.192     qc      0         |
   |          3      1   -0.099   2.192     qc      0         |
   |          4      1    0.250   2.192     qc      0         |
   |          5      2    0.000   2.000     qc      0         |
   |          6      2    0.250   2.000     qc      0         |
   |         loc     3    0.000   2.192     pn      0         |
   | Augmentation charge Rinner = 1.398                       |
   | Partial core correction Rc = 1.398                       |
   | "3|2.2|2.2|1.4|4|5|5|30:31:32U2U2"                       |
   |      Author: Chris J. Pickard, Cambridge University      |

 Pseudo atomic calculation performed for O 2s2 2p4

 Converged in 34 iterations to a total energy of -422.9243 eV

[...]

 Converged in 20 iterations to a total energy of -105.9164 eV
 Calculation parallelised over 128 processes.
 Data is distributed by G-vector(64-way) and k-point(2-way)

 ************************************ Title ************************************

 ***************************** General Parameters ******************************

 output verbosity                               : normal  (1)
 write checkpoint data to                       : al2o3-120.check
 type of calculation                            : molecular dynamics
 stress calculation                             : off
 density difference calculation                 : off
 electron localisation func (ELF) calculation   : off
 Hirshfeld analysis                             : off
 polarisation (Berry phase) analysis            : off
 molecular orbital projected DOS                : off
 deltaSCF calculation                           : off
 unlimited duration calculation
 timing information                             : on
 write extra output files                       : on
 write final potential to formatted file        : off
 write final density to formatted file          : off
 write BibTeX reference list                    : on
 write OTFG pseudopotential files               : on
 write electrostatic potential file             : on
 write bands file                               : on
 checkpoint writing                             : both castep_bin and check files

 output         length unit                     : A
 output           mass unit                     : amu
 output           time unit                     : ps
 output         charge unit                     : e
 output           spin unit                     : hbar/2
 output         energy unit                     : eV
 output          force unit                     : eV/A
 output       velocity unit                     : A/ps
 output       pressure unit                     : GPa
 output     inv_length unit                     : 1/A
 output      frequency unit                     : cm-1
 output force constant unit                     : eV/A**2
 output         volume unit                     : A**3
 output   IR intensity unit                     : (D/A)**2/amu
 output         dipole unit                     : D
 output         efield unit                     : eV/A/e
 output        entropy unit                     : J/mol/K
 output    efield chi2 unit                     : pm/V

 wavefunctions paging                           : none
 random number generator seed                   :   75319634
 data distribution                              : optimal for this architecture

 *********************** Exchange-Correlation Parameters ***********************

 using functional                               : PBE for solids (2008)
 relativistic treatment                         : Koelling-Harmon
 DFT+D: Semi-empirical dispersion correction    : off

 ************************* Pseudopotential Parameters **************************

 pseudopotential representation                 : reciprocal space
 <beta|phi> representation                      : reciprocal space
 spin-orbit coupling                            : off

 **************************** Basis Set Parameters *****************************

 plane wave basis set cut-off                   :   400.0000   eV
 size of standard grid                          :     1.7500
 size of   fine   gmax                          :    17.9311   1/A
 finite basis set correction                    : none

 **************************** Electronic Parameters ****************************

 number of  electrons                           :  567.0
 net charge of system                           :  0.000
 treating system as non-spin-polarized
 number of bands                                :       1136
 electron temperature                           :     0.0000   K

 ********************* Electronic Minimization Parameters **********************

 Method: Treating system as metallic with ensemble DFT treatment of electrons,
         and number of  SD  steps               :          1
         and number of  CG  steps               :          4

 total energy / atom convergence tol.           : 0.1000E-07   eV
 max force / atom convergence tol.              : ignored
 convergence tolerance window                   :          3   cycles
 max. number of SCF cycles                      :         50
 number of fixed-spin iterations                :         10
 smearing scheme                                : Gaussian
 smearing width                                 : 0.2000       eV
 Fermi energy convergence tolerance             : 0.2721E-13   eV
 number of occupancy cycles                     :          6
 periodic dipole correction                     : NONE

 *********************** Population Analysis Parameters ************************

 Population analysis with cutoff                :  3.000       A
 Population analysis output                     : summary and pdos components

 ************************ Molecular Dynamics Parameters ************************

 ensemble                                       : NVT
 temperature                                    :  2500.       K
 using                                          : Langevin thermostat
 with characteristic ionic time                 : 0.1000       ps
 path integral MD                               : OFF
 time step                                      : 0.1000E-02   ps
 number of MD steps                             :        100
 ab initio properties sampled every             :         10   MD steps
 enhanced equilibration method                  : NONE
 using best-fit first order extrapolation for wavefunctions
 backup results every                           :        100   steps

 MD SCF energy / atom convergence tol.          : 0.1000E-07   eV
 MD SCF convergence tolerance window            :          3   cycles
 write MD trajectory file                       : on

                                      Unit Cell
        Real Lattice(A)                      Reciprocal Lattice(1/A)
     9.6100560     0.0000000     0.0000000        0.653813600   0.377479486   0.000000000
    -4.8050280     8.3225520     0.0000000        0.000000000   0.754958973   0.000000000
     0.0000000     0.0000000    13.1162540        0.000000000   0.000000000   0.479038093

                       Lattice parameters(A)       Cell Angles
                    a =      9.610056          alpha =   90.000000
                    b =      9.610055          beta  =   90.000000
                    c =     13.116254          gamma =  120.000002

                       Current cell volume =          1049.040497       A**3
                                   density =             2.291704   AMU/A**3
                                           =             3.805463     g/cm^3

                                     Cell Contents
                         Total number of ions in cell =  118
                      Total number of species in cell =    2
                        Max number of any one species =   71

            x  Element    Atom        Fractional coordinates of atoms  x
            x            Number           u          v          w      x
            x  O            1         0.325375   0.021868   0.086712   x
            x  O            2         0.004882   0.141466   0.248583   x
            x  O            3         0.352077   0.337550   0.254065   x
            x  O            4         0.488640   0.316730   0.076657   x
            x  O            5         0.193094   0.176484   0.089314   x
            x  O            6         0.480156   0.164910   0.588787   x
            x  O            7         0.156525   0.189547   0.413201   x
            x  O            8         0.338628   0.323233   0.576501   x
            x  O            9         0.176121   0.012864   0.579073   x
            x  O           10         0.333085   0.485481   0.412626   x
            x  O           11         0.013991   0.325711   0.420692   x
            x  O           12         0.323734   0.335525   0.919625   x
            x  O           13         0.995458   0.343346   0.747250   x
            x  O           14         0.157051   0.485449   0.916373   x
            x  O           15         0.022828   0.173101   0.920432   x
[...]
 * O              53     -6.81256             -0.44860              2.38441         *
 * O              54     -5.82408              5.78503             -4.64066         *
 * O              55      0.40649              5.57802             -3.27670         *
 * O              56     -1.14074              0.64659              4.71874         *
 * O              57     -0.69168             -0.72632             -2.87684         *
 * O              58      3.23011             -6.34055              0.70740         *
 * O              59     -2.41794              0.76582             -3.75462         *
 * O              60     -1.94533              0.00428             -2.63457         *
[...]
 * Al             33     -2.77293              1.11032              3.22433         *
 * Al             34      5.04856             -1.28854              3.02058         *
 * Al             35      3.64487             -2.54118              1.54476         *
 * Al             36     -0.06254              3.40169              3.97391         *
 * Al             37     -2.24963             -1.91249              3.64109         *
 * Al             38     -4.32907             -2.94103              3.05989         *
 * Al             39      5.03341             -0.15824              2.43293         *
 * Al             40      0.36806             -2.51732             -6.07661         *
 * Al             41     -1.66811              5.30706              2.29143         *
 * Al             42     -3.56553              7.18403              1.36498         *
 * Al             43     -4.41887              0.59935             -1.44915         *
 * Al             44      0.89302              0.33327             -2.08392         *
 * Al             45      6.37583              6.68128              5.15217         *
 * Al             46      4.16818             -1.20863             -0.75809         *
 * Al             47     -3.74246             -4.48406             -5.17344         *

[...]

 Converged in 34 iterations to a total energy of -422.9243 eV

 Pseudo atomic calculation performed for Al 3s2 3p1

 Converged in 20 iterations to a total energy of -105.9164 eV
Charge spilling parameter for spin component 1 = 0.82%

            Orbital Populations
     Ion    Atom   Orbital             Charge
      O     1      S                    1.874
      O     1      Px                   1.732
      O     1      Py                   1.725
      O     1      Pz                   1.717
      O     2      S                    1.883
      O     2      Px                   1.708
      O     2      Py                   1.702
      O     2      Pz                   1.683
      O     3      S                    1.871
      O     3      Px                   1.740
      O     3      Py                   1.775
      O     3      Pz                   1.717
      O     4      S                    1.877
      O     4      Px                   1.734
      O     4      Py                   1.750
      O     4      Pz                   1.751
      O     5      S                    1.907
      O     5      Px                   1.628
      O     5      Py                   1.708
      O     5      Pz                   1.717
      O     6      S                    1.863
      O     6      Px                   1.735
      O     6      Py                   1.747
      O     6      Pz                   1.736
      O     7      S                    1.864
      O     7      Px                   1.743
      O     7      Py                   1.718
      O     7      Pz                   1.767
      O     8      S                    1.874
      O     8      Px                   1.712
      O     8      Py                   1.776
      O     8      Pz                   1.755
      O     9      S                    1.876
      O     9      Px                   1.708
      O     9      Py                   1.706
      O     9      Pz                   1.741
      O    10      S                    1.873
      O    10      Px                   1.746
      O    10      Py                   1.720
      O    10      Pz                   1.696
      O    11      S                    1.870
      O    11      Px                   1.777
      O    11      Py                   1.770
      O    11      Pz                   1.749
      O    12      S                    1.873
      O    12      Px                   1.684
      O    12      Py                   1.747
      O    12      Pz                   1.714
      O    13      S                    1.860
      O    13      Px                   1.750
      O    13      Py                   1.745
      O    13      Pz                   1.720
      O    14      S                    1.870
      O    14      Px                   1.722
      O    14      Py                   1.700
      O    14      Pz                   1.713
      O    15      S                    1.872
      O    15      Px                   1.704
      O    15      Py                   1.741
      O    15      Pz                   1.710
[...]
     Al    44      Px                   0.294
     Al    44      Py                   0.286
     Al    44      Pz                   0.276
     Al    45      S                    0.500
     Al    45      Px                   0.285
     Al    45      Py                   0.304
     Al    45      Pz                   0.287
     Al    46      S                    0.555
     Al    46      Px                   0.327
     Al    46      Py                   0.299
     Al    46      Pz                   0.316
     Al    47      S                    0.540
     Al    47      Px                   0.311
     Al    47      Py                   0.303
     Al    47      Pz                   0.301
                           Total:     566.988

     Atomic Populations (Mulliken)
Species          Ion     s       p       d       f      Total   Charge (e)
  O               1     1.874   5.173   0.000   0.000   7.047    -1.047
  O               2     1.883   5.093   0.000   0.000   6.976    -0.976
  O               3     1.871   5.233   0.000   0.000   7.104    -1.104
  O               4     1.877   5.235   0.000   0.000   7.112    -1.112
  O               5     1.907   5.054   0.000   0.000   6.961    -0.961
  O               6     1.863   5.218   0.000   0.000   7.081    -1.081
  O               7     1.864   5.228   0.000   0.000   7.092    -1.092
  O               8     1.874   5.243   0.000   0.000   7.117    -1.117
  O               9     1.876   5.156   0.000   0.000   7.032    -1.032
  O              10     1.873   5.162   0.000   0.000   7.035    -1.035
  O              11     1.870   5.296   0.000   0.000   7.166    -1.166
  O              12     1.873   5.144   0.000   0.000   7.017    -1.017
  O              13     1.860   5.214   0.000   0.000   7.074    -1.074
  O              14     1.870   5.135   0.000   0.000   7.005    -1.005
  O              15     1.872   5.156   0.000   0.000   7.028    -1.028
  O              16     1.871   5.146   0.000   0.000   7.017    -1.017
  O              17     1.866   5.173   0.000   0.000   7.039    -1.039
  O              18     1.866   5.184   0.000   0.000   7.050    -1.050
  O              19     1.873   5.133   0.000   0.000   7.007    -1.007
  O              20     1.873   5.123   0.000   0.000   6.996    -0.996
  O              21     1.871   5.245   0.000   0.000   7.116    -1.116
  O              22     1.875   5.148   0.000   0.000   7.023    -1.023
  O              23     1.868   5.161   0.000   0.000   7.029    -1.029
  O              24     1.871   5.153   0.000   0.000   7.024    -1.024
  O              25     1.878   5.126   0.000   0.000   7.004    -1.004
  O              26     1.863   5.188   0.000   0.000   7.051    -1.051
  O              27     1.869   5.216   0.000   0.000   7.085    -1.085
  O              28     1.867   5.210   0.000   0.000   7.077    -1.077
  O              29     1.874   5.105   0.000   0.000   6.979    -0.979
  O              30     1.866   5.166   0.000   0.000   7.032    -1.032
  O              31     1.866   5.156   0.000   0.000   7.022    -1.022
  O              32     1.868   5.137   0.000   0.000   7.005    -1.005
  O              33     1.867   5.146   0.000   0.000   7.014    -1.014
  O              34     1.864   5.203   0.000   0.000   7.067    -1.067
  O              35     1.864   5.219   0.000   0.000   7.083    -1.083
  O              36     1.876   5.172   0.000   0.000   7.048    -1.048
  O              37     1.868   5.199   0.000   0.000   7.067    -1.067
  O              38     1.871   5.147   0.000   0.000   7.018    -1.018
  O              39     1.865   5.170   0.000   0.000   7.034    -1.034
  O              40     1.864   5.181   0.000   0.000   7.045    -1.045
  O              41     1.867   5.193   0.000   0.000   7.060    -1.060
  O              42     1.866   5.175   0.000   0.000   7.040    -1.040
  O              43     1.868   5.152   0.000   0.000   7.020    -1.020
  O              44     1.865   5.175   0.000   0.000   7.039    -1.039
  O              45     1.860   5.187   0.000   0.000   7.047    -1.047
  O              46     1.871   5.112   0.000   0.000   6.982    -0.982
  O              47     1.867   5.225   0.000   0.000   7.092    -1.092
  O              48     1.872   5.130   0.000   0.000   7.003    -1.003
  O              49     1.864   5.185   0.000   0.000   7.049    -1.049
  O              50     1.863   5.194   0.000   0.000   7.057    -1.057
  O              51     1.866   5.171   0.000   0.000   7.036    -1.036
  O              52     1.864   5.169   0.000   0.000   7.033    -1.033
  O              53     1.861   5.208   0.000   0.000   7.069    -1.069
  O              54     1.866   5.279   0.000   0.000   7.145    -1.145
  O              55     1.862   5.216   0.000   0.000   7.078    -1.078
  O              56     1.873   5.147   0.000   0.000   7.020    -1.020
  O              57     1.876   5.155   0.000   0.000   7.031    -1.031
  O              58     1.870   5.220   0.000   0.000   7.090    -1.090
  O              59     1.863   5.213   0.000   0.000   7.076    -1.076
  O              60     1.866   5.154   0.000   0.000   7.020    -1.020
[...]
  Al             33     0.518   0.937   0.000   0.000   1.455     1.545
  Al             34     0.554   0.877   0.000   0.000   1.431     1.569
  Al             35     0.524   0.924   0.000   0.000   1.448     1.552
  Al             36     0.532   0.900   0.000   0.000   1.432     1.568
  Al             37     0.490   0.866   0.000   0.000   1.356     1.644
  Al             38     0.581   0.927   0.000   0.000   1.509     1.491
  Al             39     0.518   0.919   0.000   0.000   1.437     1.563
  Al             40     0.519   0.899   0.000   0.000   1.418     1.582
  Al             41     0.560   0.954   0.000   0.000   1.515     1.485
  Al             42     0.409   0.833   0.000   0.000   1.242     1.758
  Al             43     0.470   0.896   0.000   0.000   1.366     1.634
  Al             44     0.494   0.856   0.000   0.000   1.350     1.650
  Al             45     0.500   0.875   0.000   0.000   1.375     1.625
  Al             46     0.555   0.942   0.000   0.000   1.497     1.503
  Al             47     0.540   0.915   0.000   0.000   1.455     1.545

                 Bond                   Population      Length (A)
              O 8  -- Al 42                  0.38        1.56502
              O 11 -- Al 17                  0.37        1.58599
              O 54 -- Al 26                  0.36        1.63296
              O 64 -- Al 5                   0.41        1.64775
              O 21 -- Al 14                  0.37        1.64910
              O 4  -- Al 25                  0.45        1.64920
              O 58 -- Al 1                   0.41        1.66605
              O 35 -- Al 8                   0.42        1.66976
              O 3  -- Al 3                   0.44        1.68680
              O 38 -- Al 26                  0.44        1.69718
              O 6  -- Al 30                  0.40        1.70080
              O 55 -- Al 12                  0.39        1.71600
              O 70 -- Al 44                  0.40        1.72003
              O 11 -- Al 28                  0.39        1.72411
              O 54 -- Al 39                  0.40        1.72601
              O 59 -- Al 37                  0.39        1.73072
              O 61 -- Al 43                  0.44        1.73245
              O 65 -- Al 16                  0.42        1.73409
              O 62 -- Al 40                  0.33        1.73636
              O 1  -- Al 24                  0.48        1.73902
              O 67 -- Al 21                  0.40        1.73918
              O 45 -- Al 30                  0.45        1.74936
              O 68 -- Al 34                  0.46        1.75481
              O 27 -- Al 18                  0.36        1.75597
              O 62 -- Al 6                   0.41        1.75858
              O 13 -- Al 8                   0.38        1.76211
              O 57 -- Al 38                  0.47        1.76326
              O 63 -- Al 31                  0.39        1.76331
              O 5  -- Al 1                   0.51        1.76419
              O 4  -- Al 36                  0.50        1.76455
              O 37 -- Al 1                   0.47        1.76760
              O 63 -- Al 42                  0.30        1.76786
              O 28 -- Al 14                  0.41        1.77036
              O 63 -- Al 45                  0.30        1.77131
              O 47 -- Al 4                   0.43        1.77173
              O 36 -- Al 27                  0.37        1.77323
              O 20 -- Al 14                  0.55        1.77470
              O 40 -- Al 2                   0.45        1.77638
              O 7  -- Al 4                   0.44        1.77830
              O 53 -- Al 33                  0.41        1.77890
              O 45 -- Al 43                  0.38        1.78119
              O 7  -- Al 5                   0.43        1.78141
              O 50 -- Al 46                  0.41        1.78438
              O 47 -- Al 26                  0.26        1.79014
              O 69 -- Al 47                  0.39        1.79075
              O 37 -- Al 37                  0.44        1.79119
              O 60 -- Al 18                  0.44        1.79179
              O 41 -- Al 25                  0.34        1.79254
              O 13 -- Al 23                  0.31        1.79484
              O 53 -- Al 6                   0.33        1.79542
              O 51 -- Al 10                  0.38        1.79916
              O 49 -- Al 42                  0.38        1.80026
              O 58 -- Al 13                  0.34        1.80219
              O 43 -- Al 29                  0.40        1.80243
              O 40 -- Al 27                  0.40        1.80395
              O 66 -- Al 46                  0.45        1.80555
              O 17 -- Al 9                   0.44        1.80734
              O 34 -- Al 23                  0.33        1.80777
              O 30 -- Al 35                  0.38        1.80831
              O 10 -- Al 3                   0.33        1.81011
[...]
             Al 32 -- Al 47                 -0.12        2.98210
             Al 6  -- Al 45                 -0.20        2.98308
              O 10 -- O 61                  -0.04        2.98360
             Al 3  -- Al 7                  -0.11        2.98418
              O 69 -- Al 46                 -0.06        2.98458
              O 5  -- O 19                  -0.04        2.98642
              O 51 -- O 68                  -0.04        2.98911
              O 8  -- O 35                  -0.04        2.99017
              O 12 -- O 19                  -0.04        2.99197
              O 2  -- O 3                   -0.03        2.99482
             Al 15 -- Al 36                 -0.16        2.99577
             Al 38 -- Al 43                 -0.06        2.99578
              O 15 -- Al 1                  -0.03        2.99784
              O 24 -- O 65                  -0.05        2.99878
              O 18 -- O 56                  -0.03        2.99975

Writing analysis data to al2o3-120.castep_bin

Writing model to al2o3-120.check

 A BibTeX formatted list of references used in this run has been written to
 al2o3-120.bib

Initialisation time =     12.95 s
Calculation time    =  78647.08 s
Finalisation time   =      1.40 s
Total time          =  78661.43 s

Overall parallel efficiency rating: Good (72%)

Data was distributed by:-
G-vector (64-way); efficiency rating: Good (75%)
k-point (2-way); efficiency rating: Excellent (99%)